sat
( (x_init 2)
  (y_init 0)
  (z_init 2)
  (c_0 (- 1))
  (c_1 2)
  (c_2 0)
  (c_3 2)
  (c_4 (- 1))
  (c_5 1)
  (c_6 0)
  (c_7 0)
  (c_8 0)
  (c_9 0)
  (c_10 1)
  (c_11 0)
  (c_12 0)
  (c_13 0)
  (c_14 0)
  (c_15 1) )
